NAME 
ROWS
 N  OBJ
 L  R0      
 E  R1      
 E  R2      
 E  R3      
 E  R4      
 E  R5      
 E  R6      
 E  R7      
 E  R8      
 E  R9      
 E  R10     
 E  R11     
 E  R12     
 E  R13     
 E  R14     
 E  R15     
 E  R16     
 E  R17     
 E  R18     
 E  R19     
 E  R20     
 E  R21     
 E  R22     
 E  R23     
 E  R24     
 E  R25     
 E  R26     
 E  R27     
 E  R28     
 E  R29     
 E  R30     
COLUMNS
    MARKER    'MARKER'                 'INTORG'
    I0(3)     OBJ       -105
    I0(3)     R0        55
    I0(3)     R1        14
    I0(3)     R30       1
    I1(3)     OBJ       31
    I1(3)     R0        164
    I1(3)     R2        9
    I1(3)     R30       1
    I2(3)     OBJ       -160
    I2(3)     R0        176
    I2(3)     R3        6
    I2(3)     R30       1
    I3(3)     OBJ       -10
    I3(3)     R0        -136
    I3(3)     R4        6
    I3(3)     R30       1
    I4(3)     OBJ       48
    I4(3)     R0        90
    I4(3)     R5        4
    I4(3)     R30       1
    I5(3)     OBJ       46
    I5(3)     R0        -42
    I5(3)     R6        17
    I5(3)     R30       1
    I6(3)     OBJ       120
    I6(3)     R0        180
    I6(3)     R7        19
    I6(3)     R30       1
    I7(3)     OBJ       129
    I7(3)     R0        -44
    I7(3)     R8        16
    I7(3)     R30       1
    I8(3)     OBJ       -78
    I8(3)     R0        149
    I8(3)     R9        18
    I8(3)     R30       1
    I9(3)     OBJ       110
    I9(3)     R0        160
    I9(3)     R10       13
    I9(3)     R30       1
    I10(3)    OBJ       -78
    I10(3)    R0        -200
    I10(3)    R11       11
    I10(3)    R30       1
    I11(3)    OBJ       -187
    I11(3)    R0        125
    I11(3)    R12       8
    I11(3)    R30       1
    I12(3)    OBJ       -115
    I12(3)    R0        -110
    I12(3)    R13       16
    I12(3)    R30       1
    I13(3)    OBJ       129
    I13(3)    R0        -165
    I13(3)    R14       14
    I13(3)    R30       1
    I14(3)    OBJ       -87
    I14(3)    R0        132
    I14(3)    R15       15
    I14(3)    R30       1
    I15(3)    OBJ       -75
    I15(3)    R0        40
    I15(3)    R16       7
    I15(3)    R30       1
    I16(3)    OBJ       56
    I16(3)    R0        -117
    I16(3)    R17       9
    I16(3)    R30       1
    I17(3)    OBJ       81
    I17(3)    R0        81
    I17(3)    R18       3
    I17(3)    R30       1
    I18(3)    OBJ       80
    I18(3)    R0        167
    I18(3)    R19       4
    I18(3)    R30       1
    I19(3)    OBJ       25
    I19(3)    R0        55
    I19(3)    R20       -1
    I19(3)    R30       1
    I20(3)    OBJ       -119
    I20(3)    R0        16
    I20(3)    R21       14
    I20(3)    R30       1
    I21(3)    OBJ       -142
    I21(3)    R0        -66
    I21(3)    R22       -1
    I21(3)    R30       1
    I22(3)    OBJ       108
    I22(3)    R0        52
    I22(3)    R23       5
    I22(3)    R30       1
    I23(3)    OBJ       133
    I23(3)    R0        30
    I23(3)    R24       17
    I23(3)    R30       1
    I24(3)    OBJ       147
    I24(3)    R0        -48
    I24(3)    R25       16
    I24(3)    R30       1
    I25(3)    OBJ       -109
    I25(3)    R0        182
    I25(3)    R26       14
    I25(3)    R30       1
    I26(3)    OBJ       -87
    I26(3)    R0        -117
    I26(3)    R27       2
    I26(3)    R30       1
    I27(3)    OBJ       23
    I27(3)    R0        -97
    I27(3)    R28       14
    I27(3)    R30       1
    MARKER    'MARKER'                 'INTEND'
    C28(26)   OBJ       8
    C28(26)   R0        8
    C28(26)   R1        15
    C28(26)   R2        9
    C28(26)   R3        1
    C28(26)   R4        14
    C28(26)   R5        6
    C28(26)   R7        13
    C28(26)   R8        7
    C28(26)   R9        6
    C28(26)   R10       14
    C28(26)   R11       12
    C28(26)   R12       10
    C28(26)   R13       12
    C28(26)   R14       15
    C28(26)   R15       7
    C28(26)   R16       11
    C28(26)   R19       17
    C28(26)   R20       18
    C28(26)   R21       2
    C28(26)   R23       19
    C28(26)   R24       4
    C28(26)   R25       14
    C28(26)   R26       5
    C28(26)   R27       10
    C28(26)   R28       1
    C28(26)   R29       11
    C29(28)   OBJ       6
    C29(28)   R0        9
    C29(28)   R1        14
    C29(28)   R2        5
    C29(28)   R3        2
    C29(28)   R4        13
    C29(28)   R5        18
    C29(28)   R6        16
    C29(28)   R7        3
    C29(28)   R8        6
    C29(28)   R9        6
    C29(28)   R10       11
    C29(28)   R11       14
    C29(28)   R12       12
    C29(28)   R13       11
    C29(28)   R14       9
    C29(28)   R15       1
    C29(28)   R16       1
    C29(28)   R17       -1
    C29(28)   R19       18
    C29(28)   R20       19
    C29(28)   R21       9
    C29(28)   R23       1
    C29(28)   R24       -1
    C29(28)   R25       12
    C29(28)   R26       6
    C29(28)   R27       19
    C29(28)   R28       16
    C29(28)   R29       17
    C30(1)    R1        1
    C31(1)    R2        1
    C32(1)    R3        1
    C33(1)    R4        1
    C34(1)    R5        1
    C35(1)    R6        1
    C36(1)    R7        1
    C37(1)    R8        1
    C38(1)    R9        1
    C39(1)    R10       1
    C40(1)    R11       1
    C41(1)    R12       1
    C42(1)    R13       1
    C43(1)    R14       1
    C44(1)    R15       1
    C45(1)    R16       1
    C46(1)    R17       1
    C47(1)    R18       1
    C48(1)    R19       1
    C49(1)    R20       1
    C50(1)    R21       1
    C51(1)    R22       1
    C52(1)    R23       1
    C53(1)    R24       1
    C54(1)    R25       1
    C55(1)    R26       1
    C56(1)    R27       1
    C57(1)    R28       1
    C58(1)    R29       1
    C59(1)    R30       1
RHS
    RHS1      R0        393
    RHS1      R1        57
    RHS1      R2        83
    RHS1      R3        59
    RHS1      R4        88
    RHS1      R5        89
    RHS1      R6        79
    RHS1      R7        81
    RHS1      R8        68
    RHS1      R9        62
    RHS1      R10       58
    RHS1      R11       93
    RHS1      R12       97
    RHS1      R13       73
    RHS1      R14       57
    RHS1      R15       67
    RHS1      R16       70
    RHS1      R17       90
    RHS1      R18       95
    RHS1      R19       71
    RHS1      R20       55
    RHS1      R21       67
    RHS1      R22       81
    RHS1      R23       85
    RHS1      R24       64
    RHS1      R25       88
    RHS1      R26       67
    RHS1      R27       74
    RHS1      R28       56
    RHS1      R29       67
    RHS1      R30       9
BOUNDS
 UP BND1      I0(3)     1
 UP BND1      I1(3)     1
 UP BND1      I2(3)     1
 UP BND1      I3(3)     1
 UP BND1      I4(3)     1
 UP BND1      I5(3)     1
 UP BND1      I6(3)     1
 UP BND1      I7(3)     1
 UP BND1      I8(3)     1
 UP BND1      I9(3)     1
 UP BND1      I10(3)    1
 UP BND1      I11(3)    1
 UP BND1      I12(3)    1
 UP BND1      I13(3)    1
 UP BND1      I14(3)    1
 UP BND1      I15(3)    1
 UP BND1      I16(3)    1
 UP BND1      I17(3)    1
 UP BND1      I18(3)    1
 UP BND1      I19(3)    1
 UP BND1      I20(3)    1
 UP BND1      I21(3)    1
 UP BND1      I22(3)    1
 UP BND1      I23(3)    1
 UP BND1      I24(3)    1
 UP BND1      I25(3)    1
 UP BND1      I26(3)    1
 UP BND1      I27(3)    1
ENDATA
